c Sudoku solution
p cnf 729 0
181 0
224 0
233 0
246 0
272 0
318 0
351 0
211 0
379 0
427 0
453 0
494 0
513 0
528 0
531 0
547 0
625 0
634 0
678 0
748 0
468 0
842 0
854 0
564 0
873 0
885 0
956 0
666 0
974 0
714 0
384 0
144 0
683 0
697 0
471 0
641 0
445 0
343 0
193 0
158 0
949 0
991 0
755 0
257 0
288 0
177 0
396 0
295 0
337 0
269 0
365 0
162 0
322 0
923 0
763 0
861 0
967 0
721 0
817 0
575 0
776 0
787 0
982 0
799 0
898 0
732 0
915 0
938 0
135 0
412 0
619 0
436 0
489 0
559 0
652 0
116 0
129 0
826 0
839 0
586 0
592 0
